;;try5_small_noof_functions_flanagansaxe_stty.visible.il.flanagansaxe
(set-logic QF_BV)
(set-info :source |
Ivan Jager <aij+nospam@andrew.cmu.edu>

|)
(set-info :smt-lib-version 2.0)
(set-info :category "industrial")
(set-info :status sat)
(declare-fun T_32t0_392_537 () (_ BitVec 32))
(declare-fun T_1t0_397_535 () (_ BitVec 1))
(declare-fun T_32t5_402_534 () (_ BitVec 32))
(declare-fun R_OF_15_532 () (_ BitVec 1))
(declare-fun R_ZF_13_523 () (_ BitVec 1))
(declare-fun T_42_408_500 () (_ BitVec 32))
(declare-fun T_1t0_410_496 () (_ BitVec 1))
(declare-fun T_32t5_415_495 () (_ BitVec 32))
(declare-fun R_OF_15_490 () (_ BitVec 1))
(declare-fun R_ZF_13_481 () (_ BitVec 1))
(declare-fun R_CF_10_459 () (_ BitVec 1))
(declare-fun T_40_423_458 () (_ BitVec 32))
(declare-fun T_1t0_425_454 () (_ BitVec 1))
(declare-fun T_32t5_430_453 () (_ BitVec 32))
(declare-fun R_OF_15_451 () (_ BitVec 1))
(declare-fun R_ZF_13_442 () (_ BitVec 1))
(declare-fun T_38_436_419 () (_ BitVec 32))
(declare-fun T_1t0_438_415 () (_ BitVec 1))
(declare-fun T_32t5_443_414 () (_ BitVec 32))
(declare-fun R_OF_15_411 () (_ BitVec 1))
(declare-fun R_ZF_13_402 () (_ BitVec 1))
(declare-fun R_CF_10_380 () (_ BitVec 1))
(declare-fun T_36_449_379 () (_ BitVec 32))
(declare-fun R_OF_15_369 () (_ BitVec 1))
(declare-fun T_32t0_462_334 () (_ BitVec 32))
(declare-fun T_1t0_467_281 () (_ BitVec 1))
(declare-fun T_32t5_472_280 () (_ BitVec 32))
(declare-fun R_OF_15_277 () (_ BitVec 1))
(declare-fun R_ZF_13_268 () (_ BitVec 1))
(declare-fun R_CF_10_246 () (_ BitVec 1))
(declare-fun T_32_478_245 () (_ BitVec 32))
(declare-fun T_1t0_480_173 () (_ BitVec 1))
(declare-fun T_32t5_485_172 () (_ BitVec 32))
(declare-fun t_739 () (_ BitVec 1))
(declare-fun t_738 () (_ BitVec 1))
(declare-fun t_737 () (_ BitVec 1))
(declare-fun t_736 () (_ BitVec 1))
(declare-fun t_735 () (_ BitVec 1))
(declare-fun t_734 () (_ BitVec 1))
(declare-fun t_733 () (_ BitVec 1))
(declare-fun t_732 () (_ BitVec 1))
(declare-fun t_731 () (_ BitVec 1))
(declare-fun R_ZF_13_161 () (_ BitVec 1))
(declare-fun t_730 () (_ BitVec 1))
(declare-fun t_729 () (_ BitVec 1))
(declare-fun t_728 () (_ BitVec 1))
(declare-fun t_727 () (_ BitVec 1))
(declare-fun t_726 () (_ BitVec 1))
(declare-fun t_725 () (_ BitVec 1))
(declare-fun t_724 () (_ BitVec 1))
(declare-fun t_723 () (_ BitVec 1))
(declare-fun t_722 () (_ BitVec 1))
(declare-fun t_721 () (_ BitVec 1))
(declare-fun t_720 () (_ BitVec 1))
(declare-fun t_719 () (_ BitVec 1))
(declare-fun t_718 () (_ BitVec 1))
(declare-fun t_717 () (_ BitVec 1))
(declare-fun t_716 () (_ BitVec 1))
(declare-fun t_715 () (_ BitVec 1))
(declare-fun t_714 () (_ BitVec 1))
(declare-fun t_713 () (_ BitVec 1))
(declare-fun t_712 () (_ BitVec 1))
(declare-fun t_711 () (_ BitVec 1))
(declare-fun T_32t3_491_141 () (_ BitVec 32))
(declare-fun t_710 () (_ BitVec 1))
(declare-fun T_8t2_490_140 () (_ BitVec 8))
(declare-fun t_709 () (_ BitVec 1))
(declare-fun t_708 () (_ BitVec 1))
(declare-fun t_707 () (_ BitVec 1))
(declare-fun t_706 () (_ BitVec 1))
(declare-fun t_705 () (_ BitVec 1))
(declare-fun t_704 () (_ BitVec 1))
(declare-fun t_703 () (_ BitVec 1))
(declare-fun t_702 () (_ BitVec 1))
(declare-fun t_701 () (_ BitVec 1))
(declare-fun t_700 () (_ BitVec 1))
(declare-fun t_699 () (_ BitVec 1))
(declare-fun t_698 () (_ BitVec 1))
(declare-fun t_697 () (_ BitVec 1))
(declare-fun t_696 () (_ BitVec 1))
(declare-fun t_695 () (_ BitVec 1))
(declare-fun t_694 () (_ BitVec 1))
(declare-fun t_693 () (_ BitVec 1))
(declare-fun t_692 () (_ BitVec 1))
(declare-fun t_691 () (_ BitVec 1))
(declare-fun t_690 () (_ BitVec 1))
(declare-fun t_689 () (_ BitVec 1))
(declare-fun t_688 () (_ BitVec 1))
(declare-fun t_687 () (_ BitVec 1))
(declare-fun t_686 () (_ BitVec 1))
(declare-fun t_685 () (_ BitVec 1))
(declare-fun t_684 () (_ BitVec 1))
(declare-fun t_683 () (_ BitVec 1))
(declare-fun t_682 () (_ BitVec 1))
(declare-fun t_681 () (_ BitVec 1))
(declare-fun t_680 () (_ BitVec 1))
(declare-fun t_679 () (_ BitVec 1))
(declare-fun t_678 () (_ BitVec 1))
(declare-fun t_677 () (_ BitVec 1))
(declare-fun t_676 () (_ BitVec 1))
(declare-fun t_675 () (_ BitVec 1))
(declare-fun t_674 () (_ BitVec 1))
(declare-fun t_673 () (_ BitVec 1))
(declare-fun t_672 () (_ BitVec 1))
(declare-fun t_671 () (_ BitVec 1))
(declare-fun t_670 () (_ BitVec 1))
(declare-fun t_669 () (_ BitVec 1))
(declare-fun t_668 () (_ BitVec 1))
(declare-fun t_667 () (_ BitVec 1))
(declare-fun t_666 () (_ BitVec 1))
(declare-fun t_665 () (_ BitVec 1))
(declare-fun t_664 () (_ BitVec 1))
(declare-fun t_663 () (_ BitVec 1))
(declare-fun t_662 () (_ BitVec 1))
(declare-fun t_661 () (_ BitVec 1))
(declare-fun t_660 () (_ BitVec 1))
(declare-fun t_659 () (_ BitVec 1))
(declare-fun t_658 () (_ BitVec 1))
(declare-fun t_657 () (_ BitVec 1))
(declare-fun t_656 () (_ BitVec 1))
(declare-fun t_655 () (_ BitVec 1))
(declare-fun t_654 () (_ BitVec 1))
(declare-fun t_653 () (_ BitVec 1))
(declare-fun t_652 () (_ BitVec 1))
(declare-fun t_651 () (_ BitVec 1))
(declare-fun t_650 () (_ BitVec 1))
(declare-fun t_649 () (_ BitVec 1))
(declare-fun t_648 () (_ BitVec 1))
(declare-fun t_647 () (_ BitVec 1))
(declare-fun t_646 () (_ BitVec 1))
(declare-fun t_645 () (_ BitVec 1))
(declare-fun t_644 () (_ BitVec 1))
(declare-fun t_643 () (_ BitVec 1))
(declare-fun t_642 () (_ BitVec 1))
(declare-fun t_641 () (_ BitVec 1))
(declare-fun t_640 () (_ BitVec 1))
(declare-fun t_639 () (_ BitVec 1))
(declare-fun t_638 () (_ BitVec 1))
(declare-fun t_637 () (_ BitVec 1))
(declare-fun t_636 () (_ BitVec 1))
(declare-fun t_635 () (_ BitVec 1))
(declare-fun t_634 () (_ BitVec 1))
(declare-fun t_633 () (_ BitVec 1))
(declare-fun t_632 () (_ BitVec 1))
(declare-fun t_631 () (_ BitVec 1))
(declare-fun t_630 () (_ BitVec 1))
(declare-fun t_629 () (_ BitVec 1))
(declare-fun t_628 () (_ BitVec 1))
(declare-fun R_EAX_5_57 () (_ BitVec 32))
(declare-fun R_OF_15_615 () (_ BitVec 1))
(declare-fun T_32t0_383_582 () (_ BitVec 32))
(declare-fun R_OF_15_572 () (_ BitVec 1))
(assert (let ((?v_7 (bvnot R_OF_15_572)) (?v_6 (bvnot R_OF_15_532)) (?v_5 (bvnot R_OF_15_615)) (?v_4 (bvnot R_OF_15_490)) (?v_3 (bvnot R_OF_15_451)) (?v_2 (bvnot R_OF_15_411)) (?v_1 (bvnot R_OF_15_369)) (?v_0 (bvnot R_OF_15_277))) (= (_ bv1 1) (bvand (bvand (bvand (bvand (bvand (bvand (bvand (bvand (bvand (bvand (bvand (bvand (bvand (bvand (bvand (bvand (bvand (bvand (bvand (bvand (bvand (bvand (bvand (bvand (bvand (bvand (bvand (bvand (bvand (bvand (bvand (bvand (bvand (bvand (bvand (bvand (bvand (bvand (bvand (bvand (bvand (bvand (bvand (bvand (bvand (bvand (bvand (bvand (bvand (bvand (bvand (bvand (bvand (bvand (bvand (bvand (bvand (bvand (bvand (bvand (bvand (bvand (bvand (bvand (bvand (bvand (bvand (bvand (bvand (bvand (bvand (bvand (bvand (bvand (bvand (bvand (bvand (bvand (bvand (bvand (bvand (bvand (bvand (bvand (bvand (bvand (bvand (bvand (bvand (bvand (bvand (bvand (bvand (bvand (bvand (bvand (bvand (bvand (bvand (bvand (bvand (bvand (bvand (bvand (bvand (bvand (bvand (bvand (bvand (bvand (bvand (bvand (ite (= t_739 (bvand t_738 (_ bv1 1))) (_ bv1 1) (_ bv0 1)) (ite (= t_738 (bvand t_737 (_ bv1 1))) (_ bv1 1) (_ bv0 1))) (ite (= t_737 (bvand t_736 (_ bv1 1))) (_ bv1 1) (_ bv0 1))) (ite (= t_736 (bvand t_735 (_ bv1 1))) (_ bv1 1) (_ bv0 1))) (ite (= t_735 (bvand t_642 (bvor (bvand t_643 (_ bv1 1)) (bvand t_644 (bvand t_734 (_ bv1 1)))))) (_ bv1 1) (_ bv0 1))) (ite (= t_734 (bvand t_733 (_ bv1 1))) (_ bv1 1) (_ bv0 1))) (ite (= t_733 (bvand t_654 (bvor (bvand t_655 (bvand t_661 (_ bv1 1))) (bvand t_662 (bvand t_672 (bvor (bvand t_673 (bvand t_675 (_ bv1 1))) (bvand t_676 (bvand t_685 (bvor (bvand t_686 (bvand t_689 (_ bv1 1))) (bvand t_690 (bvand t_702 (bvor (bvand t_703 (bvand t_710 (_ bv1 1))) (bvand t_711 (bvand t_720 (bvor (bvand t_721 (bvand t_724 (_ bv1 1))) (bvand t_725 (bvand t_732 (_ bv1 1)))))))))))))))))) (_ bv1 1) (_ bv0 1))) (ite (= t_732 (bvand t_731 (_ bv1 1))) (_ bv1 1) (_ bv0 1))) (ite (= t_731 (bvand t_730 (_ bv1 1))) (_ bv1 1) (_ bv0 1))) (ite (= t_730 (bvand t_726 (bvand t_727 (bvand t_728 (bvand t_729 (_ bv1 1)))))) (_ bv1 1) (_ bv0 1))) (ite (= t_729 ?v_7) (_ bv1 1) (_ bv0 1))) (ite (= t_728 (ite (= R_OF_15_572 (ite (= (_ bv1 32) (bvand (_ bv1 32) (bvlshr (bvand (bvxor R_EAX_5_57 (_ bv127 32)) (bvxor R_EAX_5_57 T_32t0_392_537)) (_ bv31 32)))) (_ bv1 1) (_ bv0 1))) (_ bv1 1) (_ bv0 1))) (_ bv1 1) (_ bv0 1))) (ite (= t_727 (ite (= T_32t0_392_537 (bvadd R_EAX_5_57 (_ bv4294967168 32))) (_ bv1 1) (_ bv0 1))) (_ bv1 1) (_ bv0 1))) (ite (= t_726 (_ bv1 1)) (_ bv1 1) (_ bv0 1))) (ite (= t_725 (bvnot T_1t0_397_535)) (_ bv1 1) (_ bv0 1))) (ite (= t_724 (bvand t_723 (_ bv1 1))) (_ bv1 1) (_ bv0 1))) (ite (= t_723 (bvand t_722 (_ bv1 1))) (_ bv1 1) (_ bv0 1))) (ite (= t_722 (_ bv1 1)) (_ bv1 1) (_ bv0 1))) (ite (= t_721 T_1t0_397_535) (_ bv1 1) (_ bv0 1))) (ite (= t_720 (bvand t_717 (bvand t_718 (bvand t_719 (_ bv1 1))))) (_ bv1 1) (_ bv0 1))) (ite (= t_719 (ite (= T_1t0_397_535 ((_ extract 0 0) T_32t5_402_534)) (_ bv1 1) (_ bv0 1))) (_ bv1 1) (_ bv0 1))) (ite (= t_718 (ite (= T_32t5_402_534 (concat (_ bv0 31) R_ZF_13_523)) (_ bv1 1) (_ bv0 1))) (_ bv1 1) (_ bv0 1))) (ite (= t_717 (bvand t_712 (bvand t_713 (bvand t_714 (bvand t_715 (bvand t_716 (_ bv1 1))))))) (_ bv1 1) (_ bv0 1))) (ite (= t_716 ?v_6) (_ bv1 1) (_ bv0 1))) (ite (= t_715 (ite (= R_OF_15_532 (ite (= (_ bv1 32) (bvand (_ bv1 32) (bvlshr (bvand (bvxor T_32t3_491_141 (_ bv255 32)) (bvxor T_32t3_491_141 T_42_408_500)) (_ bv7 32)))) (_ bv1 1) (_ bv0 1))) (_ bv1 1) (_ bv0 1))) (_ bv1 1) (_ bv0 1))) (ite (= t_714 (ite (= R_ZF_13_523 (ite (= T_42_408_500 (_ bv0 32)) (_ bv1 1) (_ bv0 1))) (_ bv1 1) (_ bv0 1))) (_ bv1 1) (_ bv0 1))) (ite (= t_713 (ite (= T_42_408_500 (bvand (bvsub T_32t3_491_141 (_ bv255 32)) (_ bv255 32))) (_ bv1 1) (_ bv0 1))) (_ bv1 1) (_ bv0 1))) (ite (= t_712 (_ bv1 1)) (_ bv1 1) (_ bv0 1))) (ite (= t_711 (bvnot T_1t0_410_496)) (_ bv1 1) (_ bv0 1))) (ite (= t_710 (bvand t_709 (_ bv1 1))) (_ bv1 1) (_ bv0 1))) (ite (= t_709 (bvand t_708 (_ bv1 1))) (_ bv1 1) (_ bv0 1))) (ite (= t_708 (bvand t_707 (_ bv1 1))) (_ bv1 1) (_ bv0 1))) (ite (= t_707 (bvand t_704 (bvand t_705 (bvand t_706 (_ bv1 1))))) (_ bv1 1) (_ bv0 1))) (ite (= t_706 ?v_5) (_ bv1 1) (_ bv0 1))) (ite (= t_705 (ite (= R_OF_15_615 (ite (= (_ bv1 32) (bvand (_ bv1 32) (bvlshr (bvand (bvxor R_EAX_5_57 (_ bv64 32)) (bvxor R_EAX_5_57 T_32t0_383_582)) (_ bv31 32)))) (_ bv1 1) (_ bv0 1))) (_ bv1 1) (_ bv0 1))) (_ bv1 1) (_ bv0 1))) (ite (= t_704 (ite (= T_32t0_383_582 (bvsub R_EAX_5_57 (_ bv64 32))) (_ bv1 1) (_ bv0 1))) (_ bv1 1) (_ bv0 1))) (ite (= t_703 T_1t0_410_496) (_ bv1 1) (_ bv0 1))) (ite (= t_702 (bvand t_699 (bvand t_700 (bvand t_701 (_ bv1 1))))) (_ bv1 1) (_ bv0 1))) (ite (= t_701 (ite (= T_1t0_410_496 ((_ extract 0 0) T_32t5_415_495)) (_ bv1 1) (_ bv0 1))) (_ bv1 1) (_ bv0 1))) (ite (= t_700 (ite (= T_32t5_415_495 (concat (_ bv0 31) (bvor R_CF_10_459 R_ZF_13_481))) (_ bv1 1) (_ bv0 1))) (_ bv1 1) (_ bv0 1))) (ite (= t_699 (bvand t_698 (_ bv1 1))) (_ bv1 1) (_ bv0 1))) (ite (= t_698 (bvand t_697 (_ bv1 1))) (_ bv1 1) (_ bv0 1))) (ite (= t_697 (bvand t_691 (bvand t_692 (bvand t_693 (bvand t_694 (bvand t_695 (bvand t_696 (_ bv1 1)))))))) (_ bv1 1) (_ bv0 1))) (ite (= t_696 ?v_4) (_ bv1 1) (_ bv0 1))) (ite (= t_695 (ite (= R_OF_15_490 (ite (= (_ bv1 32) (bvand (_ bv1 32) (bvlshr (bvand (bvxor T_32t3_491_141 (_ bv159 32)) (bvxor T_32t3_491_141 T_40_423_458)) (_ bv7 32)))) (_ bv1 1) (_ bv0 1))) (_ bv1 1) (_ bv0 1))) (_ bv1 1) (_ bv0 1))) (ite (= t_694 (ite (= R_ZF_13_481 (ite (= T_40_423_458 (_ bv0 32)) (_ bv1 1) (_ bv0 1))) (_ bv1 1) (_ bv0 1))) (_ bv1 1) (_ bv0 1))) (ite (= t_693 (ite (= R_CF_10_459 (ite (bvult T_32t3_491_141 (_ bv159 32)) (_ bv1 1) (_ bv0 1))) (_ bv1 1) (_ bv0 1))) (_ bv1 1) (_ bv0 1))) (ite (= t_692 (ite (= T_40_423_458 (bvand (bvsub T_32t3_491_141 (_ bv159 32)) (_ bv255 32))) (_ bv1 1) (_ bv0 1))) (_ bv1 1) (_ bv0 1))) (ite (= t_691 (_ bv1 1)) (_ bv1 1) (_ bv0 1))) (ite (= t_690 (bvnot T_1t0_425_454)) (_ bv1 1) (_ bv0 1))) (ite (= t_689 (bvand t_688 (_ bv1 1))) (_ bv1 1) (_ bv0 1))) (ite (= t_688 (bvand t_687 (_ bv1 1))) (_ bv1 1) (_ bv0 1))) (ite (= t_687 (_ bv1 1)) (_ bv1 1) (_ bv0 1))) (ite (= t_686 T_1t0_425_454) (_ bv1 1) (_ bv0 1))) (ite (= t_685 (bvand t_682 (bvand t_683 (bvand t_684 (_ bv1 1))))) (_ bv1 1) (_ bv0 1))) (ite (= t_684 (ite (= T_1t0_425_454 ((_ extract 0 0) T_32t5_430_453)) (_ bv1 1) (_ bv0 1))) (_ bv1 1) (_ bv0 1))) (ite (= t_683 (ite (= T_32t5_430_453 (concat (_ bv0 31) R_ZF_13_442)) (_ bv1 1) (_ bv0 1))) (_ bv1 1) (_ bv0 1))) (ite (= t_682 (bvand t_677 (bvand t_678 (bvand t_679 (bvand t_680 (bvand t_681 (_ bv1 1))))))) (_ bv1 1) (_ bv0 1))) (ite (= t_681 ?v_3) (_ bv1 1) (_ bv0 1))) (ite (= t_680 (ite (= R_OF_15_451 (ite (= (_ bv1 32) (bvand (_ bv1 32) (bvlshr (bvand (bvxor T_32t3_491_141 (_ bv127 32)) (bvxor T_32t3_491_141 T_38_436_419)) (_ bv7 32)))) (_ bv1 1) (_ bv0 1))) (_ bv1 1) (_ bv0 1))) (_ bv1 1) (_ bv0 1))) (ite (= t_679 (ite (= R_ZF_13_442 (ite (= T_38_436_419 (_ bv0 32)) (_ bv1 1) (_ bv0 1))) (_ bv1 1) (_ bv0 1))) (_ bv1 1) (_ bv0 1))) (ite (= t_678 (ite (= T_38_436_419 (bvand (bvsub T_32t3_491_141 (_ bv127 32)) (_ bv255 32))) (_ bv1 1) (_ bv0 1))) (_ bv1 1) (_ bv0 1))) (ite (= t_677 (_ bv1 1)) (_ bv1 1) (_ bv0 1))) (ite (= t_676 (bvnot T_1t0_438_415)) (_ bv1 1) (_ bv0 1))) (ite (= t_675 (bvand t_674 (_ bv1 1))) (_ bv1 1) (_ bv0 1))) (ite (= t_674 (_ bv1 1)) (_ bv1 1) (_ bv0 1))) (ite (= t_673 T_1t0_438_415) (_ bv1 1) (_ bv0 1))) (ite (= t_672 (bvand t_669 (bvand t_670 (bvand t_671 (_ bv1 1))))) (_ bv1 1) (_ bv0 1))) (ite (= t_671 (ite (= T_1t0_438_415 ((_ extract 0 0) T_32t5_443_414)) (_ bv1 1) (_ bv0 1))) (_ bv1 1) (_ bv0 1))) (ite (= t_670 (ite (= T_32t5_443_414 (concat (_ bv0 31) (bvor R_CF_10_380 R_ZF_13_402))) (_ bv1 1) (_ bv0 1))) (_ bv1 1) (_ bv0 1))) (ite (= t_669 (bvand t_663 (bvand t_664 (bvand t_665 (bvand t_666 (bvand t_667 (bvand t_668 (_ bv1 1)))))))) (_ bv1 1) (_ bv0 1))) (ite (= t_668 ?v_2) (_ bv1 1) (_ bv0 1))) (ite (= t_667 (ite (= R_OF_15_411 (ite (= (_ bv1 32) (bvand (_ bv1 32) (bvlshr (bvand (bvxor T_32t3_491_141 (_ bv126 32)) (bvxor T_32t3_491_141 T_36_449_379)) (_ bv7 32)))) (_ bv1 1) (_ bv0 1))) (_ bv1 1) (_ bv0 1))) (_ bv1 1) (_ bv0 1))) (ite (= t_666 (ite (= R_ZF_13_402 (ite (= T_36_449_379 (_ bv0 32)) (_ bv1 1) (_ bv0 1))) (_ bv1 1) (_ bv0 1))) (_ bv1 1) (_ bv0 1))) (ite (= t_665 (ite (= R_CF_10_380 (ite (bvult T_32t3_491_141 (_ bv126 32)) (_ bv1 1) (_ bv0 1))) (_ bv1 1) (_ bv0 1))) (_ bv1 1) (_ bv0 1))) (ite (= t_664 (ite (= T_36_449_379 (bvand (bvsub T_32t3_491_141 (_ bv126 32)) (_ bv255 32))) (_ bv1 1) (_ bv0 1))) (_ bv1 1) (_ bv0 1))) (ite (= t_663 (_ bv1 1)) (_ bv1 1) (_ bv0 1))) (ite (= t_662 (bvnot T_1t0_467_281)) (_ bv1 1) (_ bv0 1))) (ite (= t_661 (bvand t_660 (_ bv1 1))) (_ bv1 1) (_ bv0 1))) (ite (= t_660 (bvand t_659 (_ bv1 1))) (_ bv1 1) (_ bv0 1))) (ite (= t_659 (bvand t_656 (bvand t_657 (bvand t_658 (_ bv1 1))))) (_ bv1 1) (_ bv0 1))) (ite (= t_658 ?v_1) (_ bv1 1) (_ bv0 1))) (ite (= t_657 (ite (= R_OF_15_369 (ite (= (_ bv1 32) (bvand (_ bv1 32) (bvlshr (bvand (bvxor R_EAX_5_57 (_ bv4294967231 32)) (bvxor R_EAX_5_57 T_32t0_462_334)) (_ bv31 32)))) (_ bv1 1) (_ bv0 1))) (_ bv1 1) (_ bv0 1))) (_ bv1 1) (_ bv0 1))) (ite (= t_656 (ite (= T_32t0_462_334 (bvadd R_EAX_5_57 (_ bv64 32))) (_ bv1 1) (_ bv0 1))) (_ bv1 1) (_ bv0 1))) (ite (= t_655 T_1t0_467_281) (_ bv1 1) (_ bv0 1))) (ite (= t_654 (bvand t_651 (bvand t_652 (bvand t_653 (_ bv1 1))))) (_ bv1 1) (_ bv0 1))) (ite (= t_653 (ite (= T_1t0_467_281 ((_ extract 0 0) T_32t5_472_280)) (_ bv1 1) (_ bv0 1))) (_ bv1 1) (_ bv0 1))) (ite (= t_652 (ite (= T_32t5_472_280 (concat (_ bv0 31) (bvor R_CF_10_246 R_ZF_13_268))) (_ bv1 1) (_ bv0 1))) (_ bv1 1) (_ bv0 1))) (ite (= t_651 (bvand t_645 (bvand t_646 (bvand t_647 (bvand t_648 (bvand t_649 (bvand t_650 (_ bv1 1)))))))) (_ bv1 1) (_ bv0 1))) (ite (= t_650 ?v_0) (_ bv1 1) (_ bv0 1))) (ite (= t_649 (ite (= R_OF_15_277 (ite (= (_ bv1 32) (bvand (_ bv1 32) (bvlshr (bvand (bvxor T_32t3_491_141 (_ bv31 32)) (bvxor T_32t3_491_141 T_32_478_245)) (_ bv7 32)))) (_ bv1 1) (_ bv0 1))) (_ bv1 1) (_ bv0 1))) (_ bv1 1) (_ bv0 1))) (ite (= t_648 (ite (= R_ZF_13_268 (ite (= T_32_478_245 (_ bv0 32)) (_ bv1 1) (_ bv0 1))) (_ bv1 1) (_ bv0 1))) (_ bv1 1) (_ bv0 1))) (ite (= t_647 (ite (= R_CF_10_246 (ite (bvult T_32t3_491_141 (_ bv31 32)) (_ bv1 1) (_ bv0 1))) (_ bv1 1) (_ bv0 1))) (_ bv1 1) (_ bv0 1))) (ite (= t_646 (ite (= T_32_478_245 (bvand (bvsub T_32t3_491_141 (_ bv31 32)) (_ bv255 32))) (_ bv1 1) (_ bv0 1))) (_ bv1 1) (_ bv0 1))) (ite (= t_645 (_ bv1 1)) (_ bv1 1) (_ bv0 1))) (ite (= t_644 (bvnot T_1t0_480_173)) (_ bv1 1) (_ bv0 1))) (ite (= t_643 T_1t0_480_173) (_ bv1 1) (_ bv0 1))) (ite (= t_642 (bvand t_639 (bvand t_640 (bvand t_641 (_ bv1 1))))) (_ bv1 1) (_ bv0 1))) (ite (= t_641 (ite (= T_1t0_480_173 ((_ extract 0 0) T_32t5_485_172)) (_ bv1 1) (_ bv0 1))) (_ bv1 1) (_ bv0 1))) (ite (= t_640 (ite (= T_32t5_485_172 (concat (_ bv0 31) R_ZF_13_161)) (_ bv1 1) (_ bv0 1))) (_ bv1 1) (_ bv0 1))) (ite (= t_639 (bvand t_638 (_ bv1 1))) (_ bv1 1) (_ bv0 1))) (ite (= t_638 (bvand t_637 (_ bv1 1))) (_ bv1 1) (_ bv0 1))) (ite (= t_637 (bvand t_636 (_ bv1 1))) (_ bv1 1) (_ bv0 1))) (ite (= t_636 (bvand t_631 (bvand t_632 (bvand t_633 (bvand t_634 (bvand t_635 (_ bv1 1))))))) (_ bv1 1) (_ bv0 1))) (ite (= t_635 (_ bv1 1)) (_ bv1 1) (_ bv0 1))) (ite (= t_634 (ite (= R_ZF_13_161 (ite (= T_32t3_491_141 (_ bv0 32)) (_ bv1 1) (_ bv0 1))) (_ bv1 1) (_ bv0 1))) (_ bv1 1) (_ bv0 1))) (ite (= t_633 (ite (= T_32t3_491_141 (concat (_ bv0 24) T_8t2_490_140)) (_ bv1 1) (_ bv0 1))) (_ bv1 1) (_ bv0 1))) (ite (= t_632 (ite (= T_8t2_490_140 ((_ extract 7 0) R_EAX_5_57)) (_ bv1 1) (_ bv0 1))) (_ bv1 1) (_ bv0 1))) (ite (= t_631 (bvand t_630 (_ bv1 1))) (_ bv1 1) (_ bv0 1))) (ite (= t_630 (bvand t_629 (_ bv1 1))) (_ bv1 1) (_ bv0 1))) (ite (= t_629 (bvand t_628 (_ bv1 1))) (_ bv1 1) (_ bv0 1))) (ite (= t_628 (_ bv1 1)) (_ bv1 1) (_ bv0 1))) (bvand (bvnot (bvor (bvand t_631 (bvand t_632 (bvand t_633 (bvand t_634 (bvnot (_ bv1 1)))))) (bvand t_642 (bvand t_644 (bvor (bvand t_645 (bvand t_646 (bvand t_647 (bvand t_648 (bvand t_649 (bvnot ?v_0)))))) (bvand t_654 (bvor (bvand t_655 (bvand t_656 (bvand t_657 (bvnot ?v_1)))) (bvand t_662 (bvor (bvand t_663 (bvand t_664 (bvand t_665 (bvand t_666 (bvand t_667 (bvnot ?v_2)))))) (bvand t_672 (bvand t_676 (bvor (bvand t_677 (bvand t_678 (bvand t_679 (bvand t_680 (bvnot ?v_3))))) (bvand t_685 (bvand t_690 (bvor (bvand t_691 (bvand t_692 (bvand t_693 (bvand t_694 (bvand t_695 (bvnot ?v_4)))))) (bvand t_702 (bvor (bvand t_703 (bvand t_704 (bvand t_705 (bvnot ?v_5)))) (bvand t_711 (bvor (bvand t_712 (bvand t_713 (bvand t_714 (bvand t_715 (bvnot ?v_6))))) (bvand t_720 (bvand t_725 (bvand t_726 (bvand t_727 (bvand t_728 (bvnot ?v_7))))))))))))))))))))))))) (bvor (bvnot (bvand t_739 (_ bv1 1))) (_ bv1 1)))))))
(check-sat)
(exit)
